NAME 
OBJSENSE MAX
ROWS
 N  OBJ
 L  packing[0]
 L  packing[1]
 L  packing[2]
 L  packing[3]
 L  packing[4]
 L  packing[5]
 L  packing[6]
 L  packing[7]
 L  packing[8]
 L  packing[9]
 L  packing[10]
 L  packing[11]
 L  packing[12]
 L  packing[13]
 L  packing[14]
 L  packing[15]
 L  packing[16]
 L  packing[17]
 L  packing[18]
 L  packing[19]
 L  packing[20]
 L  packing[21]
 L  packing[22]
 L  packing[23]
 L  packing[24]
 L  packing[25]
 L  packing[26]
 L  packing[27]
 L  packing[28]
 L  packing[29]
 L  packing[30]
 L  packing[31]
 L  packing[32]
 L  packing[33]
 L  packing[34]
 L  packing[35]
 L  packing[36]
 L  packing[37]
 L  packing[38]
 L  packing[39]
 L  packing[40]
 L  packing[41]
 L  packing[42]
 L  packing[43]
 L  packing[44]
 L  packing[45]
 L  packing[46]
 L  packing[47]
 L  packing[48]
 L  packing[49]
 L  R54     
COLUMNS
    MARKER    'MARKER'                 'INTORG'
    x[1]      OBJ       131
    x[1]      packing[0]  7
    x[1]      packing[1]  77
    x[1]      packing[4]  165
    x[1]      packing[5]  117
    x[1]      packing[6]  174
    x[1]      packing[7]  179
    x[1]      packing[8]  81
    x[1]      packing[9]  178
    x[1]      packing[10]  152
    x[1]      packing[12]  129
    x[1]      packing[13]  121
    x[1]      packing[14]  92
    x[1]      packing[15]  46
    x[1]      packing[16]  154
    x[1]      packing[17]  21
    x[1]      packing[19]  175
    x[1]      packing[21]  9
    x[1]      packing[22]  77
    x[1]      packing[23]  146
    x[1]      packing[24]  146
    x[1]      packing[25]  97
    x[1]      packing[26]  170
    x[1]      packing[27]  187
    x[1]      packing[30]  141
    x[1]      packing[31]  30
    x[1]      packing[32]  165
    x[1]      packing[33]  51
    x[1]      packing[34]  103
    x[1]      packing[35]  135
    x[1]      packing[36]  163
    x[1]      packing[38]  130
    x[1]      packing[39]  116
    x[1]      packing[40]  146
    x[1]      packing[41]  126
    x[1]      packing[47]  62
    x[1]      packing[48]  74
    x[1]      packing[49]  110
    x[1]      R54       1
    x[2]      OBJ       42
    x[2]      packing[1]  4
    x[2]      packing[2]  182
    x[2]      packing[3]  182
    x[2]      packing[5]  28
    x[2]      packing[6]  86
    x[2]      packing[7]  6
    x[2]      packing[8]  163
    x[2]      packing[9]  174
    x[2]      packing[10]  96
    x[2]      packing[13]  152
    x[2]      packing[15]  59
    x[2]      packing[17]  47
    x[2]      packing[19]  92
    x[2]      packing[21]  170
    x[2]      packing[24]  61
    x[2]      packing[25]  51
    x[2]      packing[27]  40
    x[2]      packing[28]  68
    x[2]      packing[30]  11
    x[2]      packing[31]  102
    x[2]      packing[32]  175
    x[2]      packing[34]  140
    x[2]      packing[35]  85
    x[2]      packing[36]  148
    x[2]      packing[40]  176
    x[2]      packing[43]  148
    x[2]      packing[45]  183
    x[2]      packing[46]  106
    x[2]      packing[49]  70
    x[3]      OBJ       75
    x[3]      packing[0]  23
    x[3]      packing[1]  61
    x[3]      packing[3]  56
    x[3]      packing[4]  2
    x[3]      packing[8]  142
    x[3]      packing[10]  55
    x[3]      packing[12]  179
    x[3]      packing[13]  168
    x[3]      packing[14]  87
    x[3]      packing[15]  17
    x[3]      packing[17]  87
    x[3]      packing[18]  31
    x[3]      packing[19]  100
    x[3]      packing[21]  183
    x[3]      packing[22]  43
    x[3]      packing[23]  95
    x[3]      packing[25]  118
    x[3]      packing[26]  18
    x[3]      packing[27]  167
    x[3]      packing[28]  170
    x[3]      packing[30]  84
    x[3]      packing[31]  22
    x[3]      packing[32]  162
    x[3]      packing[33]  21
    x[3]      packing[36]  140
    x[3]      packing[37]  6
    x[3]      packing[39]  135
    x[3]      packing[40]  34
    x[3]      packing[41]  61
    x[3]      packing[43]  169
    x[3]      packing[44]  58
    x[3]      packing[45]  87
    x[3]      packing[46]  29
    x[3]      packing[47]  143
    x[3]      packing[48]  122
    x[3]      packing[49]  16
    x[3]      R54       1
    x[4]      OBJ       125
    x[4]      packing[1]  122
    x[4]      packing[2]  130
    x[4]      packing[3]  182
    x[4]      packing[6]  35
    x[4]      packing[7]  43
    x[4]      packing[8]  35
    x[4]      packing[9]  117
    x[4]      packing[10]  129
    x[4]      packing[11]  158
    x[4]      packing[12]  13
    x[4]      packing[13]  120
    x[4]      packing[15]  6
    x[4]      packing[16]  177
    x[4]      packing[17]  68
    x[4]      packing[18]  195
    x[4]      packing[20]  168
    x[4]      packing[22]  167
    x[4]      packing[23]  111
    x[4]      packing[24]  47
    x[4]      packing[25]  8
    x[4]      packing[27]  8
    x[4]      packing[28]  156
    x[4]      packing[30]  161
    x[4]      packing[31]  22
    x[4]      packing[32]  193
    x[4]      packing[33]  127
    x[4]      packing[35]  79
    x[4]      packing[36]  159
    x[4]      packing[37]  152
    x[4]      packing[39]  144
    x[4]      packing[42]  11
    x[4]      packing[43]  148
    x[4]      packing[44]  10
    x[4]      packing[45]  179
    x[4]      packing[46]  195
    x[4]      packing[48]  139
    x[4]      packing[49]  76
    x[5]      OBJ       60
    x[5]      packing[0]  138
    x[5]      packing[2]  189
    x[5]      packing[3]  145
    x[5]      packing[4]  59
    x[5]      packing[8]  24
    x[5]      packing[9]  152
    x[5]      packing[10]  114
    x[5]      packing[11]  199
    x[5]      packing[12]  39
    x[5]      packing[14]  39
    x[5]      packing[15]  125
    x[5]      packing[16]  42
    x[5]      packing[17]  141
    x[5]      packing[18]  183
    x[5]      packing[19]  176
    x[5]      packing[20]  8
    x[5]      packing[22]  169
    x[5]      packing[23]  79
    x[5]      packing[24]  68
    x[5]      packing[25]  37
    x[5]      packing[28]  111
    x[5]      packing[29]  98
    x[5]      packing[30]  159
    x[5]      packing[34]  180
    x[5]      packing[35]  134
    x[5]      packing[37]  148
    x[5]      packing[38]  124
    x[5]      packing[39]  89
    x[5]      packing[42]  42
    x[5]      packing[43]  18
    x[5]      packing[44]  166
    x[5]      packing[46]  125
    x[5]      packing[47]  159
    x[5]      packing[49]  188
    x[6]      OBJ       143
    x[6]      packing[2]  191
    x[6]      packing[3]  180
    x[6]      packing[5]  58
    x[6]      packing[6]  163
    x[6]      packing[7]  2
    x[6]      packing[8]  60
    x[6]      packing[10]  10
    x[6]      packing[12]  67
    x[6]      packing[14]  142
    x[6]      packing[16]  29
    x[6]      packing[17]  105
    x[6]      packing[18]  183
    x[6]      packing[19]  3
    x[6]      packing[22]  25
    x[6]      packing[23]  51
    x[6]      packing[24]  109
    x[6]      packing[26]  91
    x[6]      packing[27]  106
    x[6]      packing[29]  29
    x[6]      packing[30]  142
    x[6]      packing[34]  128
    x[6]      packing[35]  148
    x[6]      packing[36]  194
    x[6]      packing[37]  142
    x[6]      packing[38]  111
    x[6]      packing[39]  109
    x[6]      packing[42]  167
    x[6]      packing[44]  11
    x[6]      packing[45]  13
    x[6]      packing[46]  186
    x[6]      packing[47]  74
    x[6]      packing[48]  89
    x[6]      packing[49]  6
    x[7]      OBJ       196
    x[7]      packing[0]  158
    x[7]      packing[1]  168
    x[7]      packing[2]  42
    x[7]      packing[3]  38
    x[7]      packing[4]  87
    x[7]      packing[5]  157
    x[7]      packing[7]  96
    x[7]      packing[9]  174
    x[7]      packing[10]  69
    x[7]      packing[11]  162
    x[7]      packing[12]  88
    x[7]      packing[15]  76
    x[7]      packing[16]  85
    x[7]      packing[17]  155
    x[7]      packing[18]  80
    x[7]      packing[19]  178
    x[7]      packing[20]  92
    x[7]      packing[21]  42
    x[7]      packing[23]  80
    x[7]      packing[24]  42
    x[7]      packing[25]  108
    x[7]      packing[28]  18
    x[7]      packing[30]  28
    x[7]      packing[31]  198
    x[7]      packing[32]  121
    x[7]      packing[33]  20
    x[7]      packing[34]  174
    x[7]      packing[36]  94
    x[7]      packing[38]  73
    x[7]      packing[39]  52
    x[7]      packing[41]  14
    x[7]      packing[42]  141
    x[7]      packing[44]  101
    x[7]      packing[45]  107
    x[7]      packing[47]  121
    x[7]      packing[48]  122
    x[7]      packing[49]  145
    x[7]      R54       1
    x[8]      OBJ       154
    x[8]      packing[0]  193
    x[8]      packing[2]  52
    x[8]      packing[4]  109
    x[8]      packing[5]  94
    x[8]      packing[6]  29
    x[8]      packing[7]  1
    x[8]      packing[8]  123
    x[8]      packing[9]  19
    x[8]      packing[12]  24
    x[8]      packing[13]  43
    x[8]      packing[14]  20
    x[8]      packing[15]  89
    x[8]      packing[17]  6
    x[8]      packing[18]  5
    x[8]      packing[19]  30
    x[8]      packing[20]  29
    x[8]      packing[21]  89
    x[8]      packing[22]  149
    x[8]      packing[23]  6
    x[8]      packing[24]  1
    x[8]      packing[25]  26
    x[8]      packing[26]  110
    x[8]      packing[27]  102
    x[8]      packing[28]  108
    x[8]      packing[29]  119
    x[8]      packing[30]  191
    x[8]      packing[31]  19
    x[8]      packing[32]  104
    x[8]      packing[33]  100
    x[8]      packing[34]  135
    x[8]      packing[35]  59
    x[8]      packing[37]  186
    x[8]      packing[39]  91
    x[8]      packing[40]  179
    x[8]      packing[41]  196
    x[8]      packing[42]  15
    x[8]      packing[43]  189
    x[8]      packing[45]  169
    x[8]      packing[46]  182
    x[8]      packing[47]  155
    x[8]      packing[48]  48
    x[8]      packing[49]  42
    x[8]      R54       1
    x[9]      OBJ       20
    x[9]      packing[0]  93
    x[9]      packing[2]  164
    x[9]      packing[3]  147
    x[9]      packing[4]  55
    x[9]      packing[5]  61
    x[9]      packing[7]  4
    x[9]      packing[8]  139
    x[9]      packing[9]  60
    x[9]      packing[11]  53
    x[9]      packing[12]  92
    x[9]      packing[13]  178
    x[9]      packing[14]  167
    x[9]      packing[16]  181
    x[9]      packing[18]  65
    x[9]      packing[19]  58
    x[9]      packing[24]  33
    x[9]      packing[27]  145
    x[9]      packing[29]  114
    x[9]      packing[30]  67
    x[9]      packing[31]  53
    x[9]      packing[33]  115
    x[9]      packing[34]  165
    x[9]      packing[35]  8
    x[9]      packing[36]  118
    x[9]      packing[37]  100
    x[9]      packing[38]  30
    x[9]      packing[39]  118
    x[9]      packing[40]  63
    x[9]      packing[41]  131
    x[9]      packing[44]  136
    x[9]      packing[45]  57
    x[9]      packing[46]  69
    x[9]      packing[47]  55
    x[9]      packing[48]  46
    x[9]      packing[49]  1
    x[10]     OBJ       120
    x[10]     packing[0]  89
    x[10]     packing[1]  89
    x[10]     packing[2]  61
    x[10]     packing[4]  25
    x[10]     packing[5]  130
    x[10]     packing[7]  118
    x[10]     packing[9]  178
    x[10]     packing[11]  136
    x[10]     packing[12]  50
    x[10]     packing[13]  139
    x[10]     packing[14]  100
    x[10]     packing[15]  34
    x[10]     packing[16]  161
    x[10]     packing[17]  41
    x[10]     packing[19]  113
    x[10]     packing[22]  176
    x[10]     packing[23]  168
    x[10]     packing[24]  54
    x[10]     packing[25]  180
    x[10]     packing[26]  107
    x[10]     packing[30]  39
    x[10]     packing[31]  88
    x[10]     packing[32]  64
    x[10]     packing[33]  114
    x[10]     packing[34]  152
    x[10]     packing[35]  29
    x[10]     packing[39]  20
    x[10]     packing[41]  80
    x[10]     packing[42]  106
    x[10]     packing[43]  134
    x[10]     packing[46]  179
    x[10]     packing[47]  103
    x[10]     packing[48]  30
    x[11]     OBJ       123
    x[11]     packing[0]  96
    x[11]     packing[1]  92
    x[11]     packing[2]  96
    x[11]     packing[4]  49
    x[11]     packing[6]  111
    x[11]     packing[7]  153
    x[11]     packing[8]  180
    x[11]     packing[9]  99
    x[11]     packing[10]  128
    x[11]     packing[11]  172
    x[11]     packing[12]  181
    x[11]     packing[13]  152
    x[11]     packing[14]  45
    x[11]     packing[15]  96
    x[11]     packing[17]  80
    x[11]     packing[18]  27
    x[11]     packing[19]  182
    x[11]     packing[22]  25
    x[11]     packing[23]  154
    x[11]     packing[24]  24
    x[11]     packing[26]  30
    x[11]     packing[28]  34
    x[11]     packing[29]  115
    x[11]     packing[30]  7
    x[11]     packing[31]  143
    x[11]     packing[33]  103
    x[11]     packing[34]  25
    x[11]     packing[35]  37
    x[11]     packing[36]  101
    x[11]     packing[37]  56
    x[11]     packing[39]  117
    x[11]     packing[41]  179
    x[11]     packing[42]  7
    x[11]     packing[44]  28
    x[11]     packing[46]  92
    x[11]     packing[47]  81
    x[11]     packing[49]  168
    x[12]     OBJ       133
    x[12]     packing[0]  152
    x[12]     packing[1]  154
    x[12]     packing[5]  146
    x[12]     packing[6]  54
    x[12]     packing[7]  58
    x[12]     packing[8]  29
    x[12]     packing[9]  154
    x[12]     packing[10]  193
    x[12]     packing[11]  58
    x[12]     packing[13]  177
    x[12]     packing[15]  143
    x[12]     packing[16]  174
    x[12]     packing[17]  180
    x[12]     packing[18]  24
    x[12]     packing[19]  47
    x[12]     packing[20]  86
    x[12]     packing[21]  45
    x[12]     packing[22]  52
    x[12]     packing[23]  22
    x[12]     packing[25]  198
    x[12]     packing[27]  129
    x[12]     packing[28]  32
    x[12]     packing[33]  42
    x[12]     packing[34]  38
    x[12]     packing[37]  44
    x[12]     packing[38]  180
    x[12]     packing[39]  144
    x[12]     packing[41]  162
    x[12]     packing[43]  38
    x[12]     packing[44]  169
    x[12]     packing[45]  28
    x[12]     packing[46]  170
    x[12]     packing[47]  48
    x[12]     packing[48]  175
    x[12]     packing[49]  155
    x[13]     OBJ       15
    x[13]     packing[2]  36
    x[13]     packing[3]  104
    x[13]     packing[4]  32
    x[13]     packing[7]  14
    x[13]     packing[8]  37
    x[13]     packing[11]  155
    x[13]     packing[12]  63
    x[13]     packing[14]  190
    x[13]     packing[16]  27
    x[13]     packing[17]  5
    x[13]     packing[21]  62
    x[13]     packing[22]  48
    x[13]     packing[24]  21
    x[13]     packing[25]  134
    x[13]     packing[26]  18
    x[13]     packing[27]  81
    x[13]     packing[28]  171
    x[13]     packing[29]  50
    x[13]     packing[31]  76
    x[13]     packing[32]  91
    x[13]     packing[33]  94
    x[13]     packing[34]  160
    x[13]     packing[35]  146
    x[13]     packing[36]  61
    x[13]     packing[37]  22
    x[13]     packing[38]  58
    x[13]     packing[40]  109
    x[13]     packing[42]  85
    x[13]     packing[43]  86
    x[13]     packing[44]  14
    x[13]     packing[45]  65
    x[13]     packing[46]  181
    x[13]     packing[47]  144
    x[13]     packing[48]  129
    x[13]     packing[49]  28
    x[14]     OBJ       50
    x[14]     packing[2]  80
    x[14]     packing[4]  150
    x[14]     packing[7]  10
    x[14]     packing[8]  78
    x[14]     packing[10]  53
    x[14]     packing[11]  11
    x[14]     packing[12]  137
    x[14]     packing[13]  117
    x[14]     packing[14]  20
    x[14]     packing[17]  163
    x[14]     packing[18]  89
    x[14]     packing[19]  168
    x[14]     packing[20]  31
    x[14]     packing[22]  141
    x[14]     packing[23]  181
    x[14]     packing[24]  101
    x[14]     packing[25]  62
    x[14]     packing[26]  74
    x[14]     packing[27]  147
    x[14]     packing[28]  39
    x[14]     packing[29]  190
    x[14]     packing[30]  162
    x[14]     packing[31]  81
    x[14]     packing[33]  66
    x[14]     packing[35]  12
    x[14]     packing[36]  196
    x[14]     packing[37]  140
    x[14]     packing[38]  54
    x[14]     packing[40]  109
    x[14]     packing[41]  39
    x[14]     packing[42]  68
    x[14]     packing[45]  72
    x[14]     packing[47]  150
    x[14]     packing[48]  119
    x[15]     OBJ       27
    x[15]     packing[0]  2
    x[15]     packing[1]  60
    x[15]     packing[2]  73
    x[15]     packing[3]  119
    x[15]     packing[4]  139
    x[15]     packing[6]  84
    x[15]     packing[7]  78
    x[15]     packing[8]  29
    x[15]     packing[9]  126
    x[15]     packing[11]  146
    x[15]     packing[12]  174
    x[15]     packing[13]  28
    x[15]     packing[15]  190
    x[15]     packing[18]  199
    x[15]     packing[19]  173
    x[15]     packing[20]  59
    x[15]     packing[21]  95
    x[15]     packing[23]  51
    x[15]     packing[24]  139
    x[15]     packing[26]  105
    x[15]     packing[27]  22
    x[15]     packing[29]  93
    x[15]     packing[30]  54
    x[15]     packing[31]  80
    x[15]     packing[32]  165
    x[15]     packing[33]  98
    x[15]     packing[34]  79
    x[15]     packing[35]  159
    x[15]     packing[37]  169
    x[15]     packing[38]  136
    x[15]     packing[40]  151
    x[15]     packing[41]  60
    x[15]     packing[42]  75
    x[15]     packing[43]  20
    x[15]     packing[44]  148
    x[15]     packing[45]  105
    x[15]     packing[46]  51
    x[15]     packing[47]  11
    x[15]     packing[48]  173
    x[15]     packing[49]  26
    x[16]     OBJ       119
    x[16]     packing[0]  68
    x[16]     packing[1]  69
    x[16]     packing[2]  177
    x[16]     packing[3]  114
    x[16]     packing[4]  24
    x[16]     packing[6]  105
    x[16]     packing[7]  186
    x[16]     packing[8]  11
    x[16]     packing[9]  76
    x[16]     packing[10]  28
    x[16]     packing[11]  83
    x[16]     packing[12]  27
    x[16]     packing[13]  118
    x[16]     packing[14]  163
    x[16]     packing[15]  144
    x[16]     packing[16]  165
    x[16]     packing[17]  96
    x[16]     packing[18]  70
    x[16]     packing[19]  59
    x[16]     packing[20]  153
    x[16]     packing[21]  198
    x[16]     packing[22]  120
    x[16]     packing[23]  101
    x[16]     packing[25]  118
    x[16]     packing[26]  19
    x[16]     packing[27]  161
    x[16]     packing[28]  115
    x[16]     packing[29]  3
    x[16]     packing[31]  94
    x[16]     packing[32]  51
    x[16]     packing[34]  145
    x[16]     packing[35]  82
    x[16]     packing[36]  30
    x[16]     packing[37]  155
    x[16]     packing[39]  145
    x[16]     packing[40]  61
    x[16]     packing[41]  116
    x[16]     packing[43]  40
    x[16]     packing[44]  14
    x[16]     packing[45]  33
    x[16]     packing[46]  80
    x[16]     packing[47]  110
    x[16]     packing[48]  6
    x[17]     OBJ       20
    x[17]     packing[0]  127
    x[17]     packing[1]  84
    x[17]     packing[2]  125
    x[17]     packing[3]  119
    x[17]     packing[5]  145
    x[17]     packing[6]  35
    x[17]     packing[8]  37
    x[17]     packing[9]  109
    x[17]     packing[11]  129
    x[17]     packing[14]  65
    x[17]     packing[15]  152
    x[17]     packing[17]  199
    x[17]     packing[18]  192
    x[17]     packing[19]  12
    x[17]     packing[20]  142
    x[17]     packing[22]  103
    x[17]     packing[25]  116
    x[17]     packing[27]  92
    x[17]     packing[29]  42
    x[17]     packing[30]  125
    x[17]     packing[31]  140
    x[17]     packing[32]  115
    x[17]     packing[33]  192
    x[17]     packing[34]  161
    x[17]     packing[35]  52
    x[17]     packing[37]  64
    x[17]     packing[38]  131
    x[17]     packing[39]  168
    x[17]     packing[41]  183
    x[17]     packing[42]  166
    x[17]     packing[43]  105
    x[17]     packing[44]  31
    x[17]     packing[45]  191
    x[17]     packing[46]  84
    x[17]     packing[47]  146
    x[17]     packing[48]  179
    x[17]     packing[49]  48
    x[18]     OBJ       191
    x[18]     packing[0]  168
    x[18]     packing[1]  179
    x[18]     packing[2]  77
    x[18]     packing[4]  62
    x[18]     packing[5]  161
    x[18]     packing[6]  58
    x[18]     packing[7]  142
    x[18]     packing[9]  124
    x[18]     packing[10]  29
    x[18]     packing[11]  11
    x[18]     packing[13]  84
    x[18]     packing[16]  68
    x[18]     packing[17]  197
    x[18]     packing[18]  19
    x[18]     packing[19]  28
    x[18]     packing[20]  104
    x[18]     packing[21]  32
    x[18]     packing[23]  124
    x[18]     packing[24]  59
    x[18]     packing[25]  81
    x[18]     packing[27]  144
    x[18]     packing[29]  151
    x[18]     packing[30]  13
    x[18]     packing[31]  29
    x[18]     packing[32]  172
    x[18]     packing[36]  29
    x[18]     packing[37]  153
    x[18]     packing[39]  99
    x[18]     packing[41]  172
    x[18]     packing[42]  52
    x[18]     packing[44]  146
    x[18]     packing[46]  118
    x[18]     packing[47]  8
    x[18]     packing[48]  26
    x[18]     packing[49]  99
    x[18]     R54       1
    x[19]     OBJ       29
    x[19]     packing[0]  30
    x[19]     packing[1]  29
    x[19]     packing[2]  7
    x[19]     packing[5]  49
    x[19]     packing[6]  139
    x[19]     packing[7]  39
    x[19]     packing[8]  83
    x[19]     packing[9]  139
    x[19]     packing[10]  135
    x[19]     packing[11]  148
    x[19]     packing[12]  2
    x[19]     packing[13]  10
    x[19]     packing[15]  60
    x[19]     packing[17]  21
    x[19]     packing[21]  47
    x[19]     packing[22]  159
    x[19]     packing[23]  134
    x[19]     packing[24]  4
    x[19]     packing[25]  190
    x[19]     packing[26]  20
    x[19]     packing[27]  22
    x[19]     packing[28]  175
    x[19]     packing[29]  76
    x[19]     packing[30]  2
    x[19]     packing[31]  30
    x[19]     packing[33]  25
    x[19]     packing[34]  186
    x[19]     packing[36]  128
    x[19]     packing[38]  130
    x[19]     packing[39]  96
    x[19]     packing[40]  96
    x[19]     packing[41]  131
    x[19]     packing[43]  46
    x[19]     packing[44]  139
    x[19]     packing[45]  143
    x[19]     packing[48]  83
    x[20]     OBJ       168
    x[20]     packing[0]  14
    x[20]     packing[2]  131
    x[20]     packing[3]  136
    x[20]     packing[4]  76
    x[20]     packing[5]  22
    x[20]     packing[6]  3
    x[20]     packing[8]  148
    x[20]     packing[9]  136
    x[20]     packing[10]  39
    x[20]     packing[11]  72
    x[20]     packing[12]  35
    x[20]     packing[14]  22
    x[20]     packing[15]  103
    x[20]     packing[16]  5
    x[20]     packing[17]  108
    x[20]     packing[18]  87
    x[20]     packing[19]  76
    x[20]     packing[20]  140
    x[20]     packing[21]  88
    x[20]     packing[22]  129
    x[20]     packing[23]  43
    x[20]     packing[24]  36
    x[20]     packing[25]  196
    x[20]     packing[26]  25
    x[20]     packing[27]  48
    x[20]     packing[28]  145
    x[20]     packing[29]  60
    x[20]     packing[30]  183
    x[20]     packing[31]  86
    x[20]     packing[32]  150
    x[20]     packing[34]  73
    x[20]     packing[35]  9
    x[20]     packing[36]  180
    x[20]     packing[37]  169
    x[20]     packing[38]  193
    x[20]     packing[39]  170
    x[20]     packing[40]  136
    x[20]     packing[41]  102
    x[20]     packing[42]  160
    x[20]     packing[43]  170
    x[20]     packing[45]  25
    x[20]     packing[47]  91
    x[20]     packing[49]  148
    x[20]     R54       1
    MARKER    'MARKER'                 'INTEND'
RHS
    RHS1      packing[0]  679
    RHS1      packing[1]  594
    RHS1      packing[2]  907
    RHS1      packing[3]  761
    RHS1      packing[4]  517
    RHS1      packing[5]  584
    RHS1      packing[6]  538
    RHS1      packing[7]  565
    RHS1      packing[8]  700
    RHS1      packing[9]  1008
    RHS1      packing[10]  615
    RHS1      packing[11]  847
    RHS1      packing[12]  650
    RHS1      packing[13]  804
    RHS1      packing[14]  576
    RHS1      packing[15]  670
    RHS1      packing[16]  634
    RHS1      packing[17]  860
    RHS1      packing[18]  725
    RHS1      packing[19]  835
    RHS1      packing[20]  506
    RHS1      packing[21]  530
    RHS1      packing[22]  792
    RHS1      packing[23]  773
    RHS1      packing[24]  473
    RHS1      packing[25]  860
    RHS1      packing[26]  394
    RHS1      packing[27]  801
    RHS1      packing[28]  671
    RHS1      packing[29]  570
    RHS1      packing[30]  785
    RHS1      packing[31]  647
    RHS1      packing[32]  864
    RHS1      packing[33]  584
    RHS1      packing[34]  1022
    RHS1      packing[35]  587
    RHS1      packing[36]  871
    RHS1      packing[37]  853
    RHS1      packing[38]  675
    RHS1      packing[39]  907
    RHS1      packing[40]  630
    RHS1      packing[41]  876
    RHS1      packing[42]  548
    RHS1      packing[43]  656
    RHS1      packing[44]  586
    RHS1      packing[45]  729
    RHS1      packing[46]  924
    RHS1      packing[47]  831
    RHS1      packing[48]  780
    RHS1      packing[49]  663
    RHS1      R54       5
BOUNDS
 BV BND1      x[1]    
 BV BND1      x[2]    
 BV BND1      x[3]    
 BV BND1      x[4]    
 BV BND1      x[5]    
 BV BND1      x[6]    
 BV BND1      x[7]    
 BV BND1      x[8]    
 BV BND1      x[9]    
 BV BND1      x[10]   
 BV BND1      x[11]   
 BV BND1      x[12]   
 BV BND1      x[13]   
 BV BND1      x[14]   
 BV BND1      x[15]   
 BV BND1      x[16]   
 BV BND1      x[17]   
 BV BND1      x[18]   
 BV BND1      x[19]   
 BV BND1      x[20]   
ENDATA
